language ESSENCE' 1.0

letting jobs = 102
letting horizon = 772
letting resourcesRenew = 2
letting resourcesNonrenew = 2
letting resourceLimits = [24, 32, 612, 608]
letting successors = [[2, 3, 4, 5, 6, 8, 9, 15], [23, 21, 19, 18, 17, 16, 12, 11, 10, 7], [23, 21, 17, 16, 14, 13, 12, 7], [35, 30, 19, 18, 17, 16, 13, 10], [35, 34, 29, 24, 23, 22, 20, 16], [31, 29, 23, 21, 17, 13], [38, 35, 34, 33, 30, 29, 27, 26, 25, 24, 22, 20], [35, 34, 31, 28, 18, 13], [41, 38, 36, 35, 34, 31, 27, 25, 24, 22], [41, 38, 37, 34, 33, 28, 27, 24], [44, 41, 40, 38, 37, 36, 35, 34, 32, 31], [41, 38, 37, 36, 34, 33, 32, 24], [41, 38, 36, 33, 27, 24, 22], [44, 43, 41, 40, 38, 36, 34, 28, 27], [35, 27, 25, 19], [40, 38, 36, 31, 27, 25], [37, 34, 22, 20], [49, 47, 44, 43, 42, 41, 40, 37, 32], [49, 37, 32, 24], [49, 47, 44, 43, 42, 41, 32], [47, 44, 42, 41, 38, 32], [49, 47, 44, 43, 42, 32], [44, 43, 42, 41, 40, 33], [56, 48, 47, 46, 44, 43, 42, 40, 39], [49, 47, 43, 37, 32], [47, 39, 37, 31], [49, 47, 42, 32], [49, 47, 42, 32], [64, 56, 55, 49, 48, 47, 41], [56, 49, 47, 46, 39], [56, 48, 45, 43, 42], [56, 48, 46, 39], [56, 55, 51, 50, 48, 47, 46, 45], [49, 48, 39], [56, 46, 39], [51, 47, 46, 45, 42], [64, 55, 51, 50, 46, 45], [64, 62, 54, 52, 51, 50, 49], [64, 55, 51, 50, 45], [64, 55, 54, 50, 45], [61, 54, 51, 50, 45], [73, 64, 62, 61, 54, 52, 50], [64, 62, 58, 55, 51, 50], [50, 45], [73, 62, 57, 53, 52], [73, 54, 53, 52], [74, 73, 65, 62, 54], [74, 73, 58, 54], [73, 66, 65, 61, 57], [72, 59, 53], [73, 66, 65, 60, 57], [74, 72, 71, 60, 58], [74, 71, 66, 65, 63, 60], [66, 63, 57], [70, 66, 65, 61], [79, 74, 71, 67, 65, 60], [72, 69, 67, 59], [79, 70, 66, 65], [88, 82, 81, 80, 79, 76, 71, 70, 68], [88, 82, 81, 80, 78, 77, 76, 70, 68], [86, 80, 79, 78, 77, 76, 75, 74, 72], [88, 85, 80, 79, 77, 68, 67], [88, 82, 80, 79, 78, 70, 68], [88, 82, 78, 77, 74, 70, 68], [88, 78, 76, 69, 68], [88, 85, 80, 68, 67], [84, 82, 81, 75], [101, 95, 86, 84, 75], [100, 85, 84, 83, 77], [101, 95, 85, 75], [100, 96, 95, 87, 86, 83, 78], [99, 89, 88, 87, 83, 81], [101, 99, 89, 86, 83, 80], [101, 100, 99, 98, 96, 95, 94, 89, 85], [100, 99, 96, 89, 87, 83], [98, 95, 94, 89, 87, 85], [101, 99, 96, 95, 92, 91, 89, 87], [99, 98, 97, 94, 93, 91, 89], [98, 97, 95, 94, 92, 87], [100, 96, 95, 93, 92, 91, 90], [96, 95, 94, 93, 92, 91, 90], [101, 95, 94, 92, 87], [98, 94, 92, 91, 90], [97, 96, 91, 89], [97, 93, 92, 91], [94, 92, 90], [93, 90], [97, 91], [90], [102], [102], [102], [102], [102], [102], [102], [102], [102], [102], [102], [102], []]
letting durations = [[0], [2, 3, 9], [2, 5, 9], [4, 4, 7], [3, 5, 9], [1, 4, 5], [2, 3, 5], [1, 7, 10], [1, 3, 4], [1, 2, 3], [3, 4, 8], [1, 6, 7], [2, 9, 9], [1, 6, 7], [1, 6, 8], [4, 6, 9], [1, 2, 4], [1, 4, 7], [1, 9, 10], [3, 7, 8], [5, 7, 8], [1, 5, 8], [5, 7, 9], [1, 4, 9], [5, 6, 9], [3, 3, 10], [1, 8, 10], [1, 7, 10], [2, 4, 8], [1, 2, 3], [2, 2, 5], [1, 2, 5], [2, 5, 6], [2, 4, 5], [2, 6, 10], [9, 9, 10], [4, 6, 7], [5, 9, 9], [5, 10, 10], [3, 7, 8], [1, 2, 9], [6, 9, 10], [2, 6, 10], [5, 8, 9], [1, 3, 7], [1, 8, 9], [1, 4, 6], [3, 6, 10], [6, 8, 10], [4, 7, 7], [1, 2, 4], [2, 3, 5], [5, 6, 9], [2, 3, 8], [3, 6, 9], [2, 3, 5], [8, 9, 10], [1, 7, 10], [2, 5, 8], [1, 4, 7], [6, 9, 10], [1, 4, 9], [6, 8, 10], [1, 5, 9], [6, 7, 7], [2, 4, 10], [5, 6, 9], [5, 6, 7], [1, 2, 7], [1, 4, 10], [6, 7, 8], [2, 3, 7], [2, 3, 4], [6, 7, 8], [2, 4, 6], [4, 6, 7], [2, 8, 9], [1, 2, 3], [1, 2, 3], [2, 7, 9], [2, 5, 7], [8, 8, 10], [2, 3, 4], [2, 2, 8], [3, 3, 4], [1, 3, 10], [4, 5, 10], [3, 4, 6], [2, 6, 9], [1, 7, 10], [7, 9, 10], [4, 10, 10], [1, 5, 8], [2, 5, 7], [1, 8, 9], [2, 5, 7], [4, 6, 7], [2, 7, 8], [3, 4, 6], [3, 4, 5], [1, 4, 6], [0]]
letting resourceUsage = [[[0, 0, 0, 0]], [[3, 0, 6, 8], [0, 2, 6, 7], [2, 0, 4, 7]], [[2, 0, 6, 7], [0, 1, 5, 6], [1, 0, 5, 6]], [[0, 2, 3, 5], [4, 0, 2, 2], [0, 1, 1, 2]], [[0, 4, 6, 2], [0, 3, 4, 1], [1, 0, 3, 1]], [[0, 2, 3, 6], [3, 0, 2, 6], [3, 0, 2, 5]], [[5, 0, 8, 3], [0, 1, 8, 2], [2, 0, 7, 1]], [[0, 4, 8, 9], [0, 4, 5, 7], [0, 4, 4, 2]], [[0, 4, 2, 10], [1, 0, 1, 7], [0, 2, 1, 5]], [[4, 0, 9, 8], [4, 0, 5, 7], [3, 0, 3, 7]], [[3, 0, 7, 7], [0, 3, 6, 6], [0, 3, 6, 4]], [[3, 0, 8, 1], [0, 3, 6, 1], [3, 0, 4, 1]], [[0, 5, 2, 9], [0, 5, 2, 8], [2, 0, 2, 7]], [[2, 0, 7, 7], [0, 2, 6, 6], [2, 0, 3, 4]], [[2, 0, 10, 10], [0, 4, 8, 5], [0, 3, 8, 2]], [[5, 0, 4, 8], [5, 0, 3, 7], [0, 4, 3, 6]], [[4, 0, 8, 7], [2, 0, 5, 5], [2, 0, 5, 3]], [[0, 1, 6, 5], [0, 1, 6, 4], [0, 1, 5, 2]], [[4, 0, 9, 9], [0, 4, 7, 7], [2, 0, 7, 6]], [[0, 5, 6, 8], [3, 0, 6, 8], [3, 0, 2, 6]], [[4, 0, 7, 7], [0, 2, 7, 6], [0, 2, 6, 6]], [[0, 5, 3, 4], [1, 0, 3, 4], [0, 2, 2, 4]], [[0, 4, 3, 8], [2, 0, 1, 4], [0, 3, 1, 2]], [[0, 4, 9, 6], [0, 4, 5, 3], [2, 0, 4, 1]], [[3, 0, 8, 8], [3, 0, 8, 6], [0, 2, 7, 5]], [[0, 5, 8, 5], [4, 0, 8, 3], [0, 3, 8, 2]], [[0, 2, 6, 9], [2, 0, 5, 6], [2, 0, 4, 4]], [[3, 0, 5, 8], [2, 0, 3, 8], [1, 0, 2, 7]], [[5, 0, 7, 6], [3, 0, 5, 5], [0, 1, 5, 5]], [[0, 3, 7, 6], [3, 0, 6, 3], [3, 0, 6, 1]], [[4, 0, 7, 9], [0, 3, 7, 7], [2, 0, 5, 5]], [[5, 0, 5, 5], [0, 2, 4, 3], [3, 0, 2, 3]], [[0, 1, 7, 10], [0, 1, 6, 6], [1, 0, 4, 4]], [[0, 3, 7, 1], [5, 0, 6, 1], [5, 0, 4, 1]], [[3, 0, 4, 10], [0, 3, 4, 8], [0, 1, 3, 8]], [[0, 4, 9, 7], [4, 0, 8, 6], [4, 0, 8, 5]], [[5, 0, 6, 7], [2, 0, 6, 6], [2, 0, 5, 4]], [[0, 4, 8, 9], [0, 2, 6, 9], [2, 0, 6, 9]], [[0, 3, 2, 5], [0, 2, 2, 5], [2, 0, 2, 3]], [[3, 0, 7, 9], [2, 0, 7, 7], [2, 0, 2, 7]], [[0, 5, 5, 8], [0, 4, 3, 3], [1, 0, 2, 3]], [[4, 0, 7, 6], [0, 2, 5, 6], [0, 2, 3, 5]], [[1, 0, 7, 8], [0, 2, 6, 8], [0, 1, 4, 7]], [[3, 0, 3, 7], [0, 3, 3, 5], [0, 3, 3, 3]], [[0, 2, 6, 5], [0, 2, 5, 5], [4, 0, 5, 4]], [[5, 0, 9, 10], [4, 0, 9, 8], [0, 3, 9, 5]], [[0, 4, 2, 8], [3, 0, 2, 8], [3, 0, 2, 7]], [[0, 4, 1, 5], [4, 0, 1, 5], [4, 0, 1, 3]], [[4, 0, 9, 5], [4, 0, 6, 5], [3, 0, 5, 4]], [[0, 3, 8, 9], [3, 0, 4, 7], [0, 1, 4, 6]], [[2, 0, 7, 9], [1, 0, 6, 8], [0, 2, 2, 8]], [[3, 0, 9, 10], [2, 0, 7, 10], [0, 4, 5, 10]], [[5, 0, 9, 5], [5, 0, 6, 3], [0, 4, 4, 2]], [[0, 5, 10, 10], [3, 0, 4, 9], [2, 0, 1, 8]], [[4, 0, 5, 9], [0, 2, 4, 7], [0, 1, 2, 7]], [[0, 1, 7, 7], [0, 1, 5, 7], [1, 0, 3, 7]], [[2, 0, 8, 9], [2, 0, 8, 7], [2, 0, 8, 4]], [[3, 0, 9, 1], [2, 0, 9, 1], [2, 0, 8, 1]], [[3, 0, 4, 6], [2, 0, 3, 3], [0, 1, 3, 3]], [[5, 0, 10, 7], [0, 2, 8, 5], [0, 2, 8, 4]], [[0, 4, 10, 6], [0, 3, 9, 4], [0, 3, 8, 3]], [[2, 0, 8, 7], [0, 4, 8, 7], [2, 0, 8, 5]], [[0, 1, 5, 9], [2, 0, 3, 7], [2, 0, 3, 6]], [[4, 0, 10, 5], [0, 3, 10, 5], [0, 2, 10, 4]], [[4, 0, 7, 10], [3, 0, 5, 10], [0, 1, 3, 10]], [[4, 0, 7, 8], [0, 3, 7, 7], [1, 0, 7, 6]], [[3, 0, 9, 1], [0, 2, 4, 1], [0, 2, 3, 1]], [[0, 4, 6, 4], [3, 0, 4, 4], [2, 0, 1, 2]], [[0, 1, 9, 5], [0, 1, 8, 3], [0, 1, 8, 2]], [[0, 4, 10, 9], [3, 0, 9, 6], [0, 1, 7, 4]], [[0, 5, 1, 7], [0, 4, 1, 7], [5, 0, 1, 6]], [[5, 0, 2, 7], [0, 5, 2, 4], [5, 0, 2, 3]], [[3, 0, 7, 6], [3, 0, 6, 4], [2, 0, 6, 3]], [[0, 3, 8, 7], [4, 0, 7, 6], [0, 2, 6, 6]], [[0, 4, 7, 4], [3, 0, 6, 4], [0, 2, 6, 2]], [[1, 0, 7, 4], [0, 4, 5, 4], [0, 4, 3, 3]], [[3, 0, 8, 5], [2, 0, 7, 4], [1, 0, 5, 3]], [[0, 3, 7, 7], [0, 2, 4, 4], [3, 0, 2, 4]], [[4, 0, 8, 7], [4, 0, 8, 5], [0, 3, 8, 5]], [[0, 2, 8, 2], [0, 2, 5, 1], [0, 2, 4, 1]], [[3, 0, 9, 5], [2, 0, 9, 3], [0, 3, 9, 3]], [[0, 5, 8, 7], [2, 0, 7, 7], [2, 0, 7, 6]], [[4, 0, 10, 4], [0, 3, 7, 2], [0, 3, 5, 2]], [[4, 0, 9, 8], [0, 2, 7, 7], [4, 0, 6, 7]], [[0, 4, 10, 8], [1, 0, 9, 7], [0, 4, 9, 4]], [[0, 3, 8, 10], [0, 1, 8, 9], [0, 1, 8, 8]], [[0, 4, 9, 8], [0, 4, 7, 8], [0, 4, 6, 5]], [[5, 0, 6, 5], [0, 2, 6, 5], [0, 1, 6, 3]], [[0, 3, 9, 6], [1, 0, 8, 2], [1, 0, 8, 1]], [[0, 4, 3, 6], [4, 0, 1, 5], [3, 0, 1, 3]], [[2, 0, 8, 6], [0, 3, 7, 6], [0, 2, 6, 2]], [[0, 2, 3, 10], [0, 2, 3, 7], [4, 0, 3, 5]], [[0, 4, 1, 3], [0, 4, 1, 2], [0, 3, 1, 1]], [[5, 0, 8, 3], [0, 2, 6, 2], [0, 2, 5, 2]], [[0, 2, 3, 5], [3, 0, 2, 5], [3, 0, 2, 2]], [[3, 0, 5, 6], [0, 4, 4, 4], [1, 0, 4, 4]], [[0, 2, 4, 9], [3, 0, 4, 8], [0, 2, 4, 8]], [[0, 3, 5, 7], [0, 3, 4, 4], [0, 3, 4, 2]], [[3, 0, 8, 10], [0, 4, 3, 8], [2, 0, 3, 6]], [[4, 0, 9, 9], [0, 3, 4, 6], [0, 1, 2, 4]], [[0, 1, 9, 3], [2, 0, 9, 3], [0, 1, 9, 2]], [[0, 0, 0, 0]]]
